(set-info :smt-lib-version 2.6)
(set-logic QF_LIA)
(set-info :category "industrial")
(set-info :status sat)
(declare-fun x0 () Int)
(declare-fun x1 () Int)
(declare-fun x10 () Int)
(declare-fun x11 () Int)
(declare-fun x12 () Int)
(declare-fun x13 () Int)
(declare-fun x14 () Int)
(declare-fun x15 () Int)
(declare-fun x16 () Int)
(declare-fun x17 () Int)
(declare-fun x18 () Int)
(declare-fun x19 () Int)
(declare-fun x2 () Int)
(declare-fun x20 () Int)
(declare-fun x21 () Int)
(declare-fun x22 () Int)
(declare-fun x23 () Int)
(declare-fun x24 () Int)
(declare-fun x25 () Int)
(declare-fun x26 () Int)
(declare-fun x27 () Int)
(declare-fun x28 () Int)
(declare-fun x29 () Int)
(declare-fun x3 () Int)
(declare-fun x4 () Int)
(declare-fun x5 () Int)
(declare-fun x6 () Int)
(declare-fun x7 () Int)
(declare-fun x8 () Int)
(declare-fun x9 () Int)
(assert (let ((?v_60 (* 1 x0)) (?v_48 (* 0 x12)) (?v_5 (* 0 x14)) (?v_67 (* 1 x15)) (?v_8 (* 0 x21)) (?v_1 (* 0 x23)) (?v_2 (* 1 x26)) (?v_14 (* 0 x28)) (?v_15 (* 0 x3)) (?v_32 (* 0 x7)) (?v_3 (* 0 x9)) (?v_38 (* 0 x0)) (?v_39 (* 1 x1)) (?v_64 (* 1 x10)) (?v_6 (* 1 x13)) (?v_30 (* 1 x18)) (?v_58 (* 0 x20)) (?v_9 (* 0 x25)) (?v_10 (* 0 x1)) (?v_27 (* 1 x12)) (?v_12 (* 0 x17)) (?v_13 (* 0 x19)) (?v_43 (* 0 x27)) (?v_23 (* 0 x26)) (?v_45 (* 0 x5)) (?v_54 (* 1 x20)) (?v_42 (* 0 x22)) (?v_24 (* 1 x24)) (?v_20 (* 1 x28)) (?v_69 (* 1 x29)) (?v_85 (* 1 x7)) (?v_83 (* 1 x8)) (?v_16 (* 1 x11)) (?v_98 (* 2 x13)) (?v_17 (* 1 x2)) (?v_33 (* 1 x21)) (?v_66 (* 0 x29)) (?v_19 (* 1 x22)) (?v_89 (* 1 x4)) (?v_21 (* 0 x6))) (let ((?v_25 (+ ?v_89 ?v_21)) (?v_46 (* 0 x10)) (?v_80 (* 1 x17)) (?v_81 (* 0 x18)) (?v_50 (* 1 x25)) (?v_35 (* 1 x9)) (?v_28 (* 1 x14)) (?v_40 (* 1 x19)) (?v_49 (* 0 x2)) (?v_59 (* 0 x24)) (?v_44 (* 0 x4)) (?v_47 (* 0 x11)) (?v_96 (* 2 x29)) (?v_51 (* 0 x15)) (?v_65 (* 1 x23)) (?v_95 (* 1 x16)) (?v_57 (* 0 x16)) (?v_62 (* 1 x5)) (?v_100 (* 1 x3)) (?v_70 (* 1 x6)) (?v_73 (* 2 x8)) (?v_68 (* 0 x8)) (?v_79 (* 1 x27)) (?v_88 (* 0 x13))) (let ((?v_90 (+ ?v_3 ?v_62)) (?v_92 (+ ?v_21 (+ ?v_83 ?v_35))) (?v_99 (* 2 x15)) (?v_105 (+ ?v_21 ?v_95)) (?v_4 (* (- 1) x10)) (?v_0 (* (- 1) x11)) (?v_29 (* (- 2) x20)) (?v_52 (* (- 1) x24)) (?v_56 (* (- 1) x25)) (?v_31 (* (- 1) x5)) (?v_34 (* (- 1) x6)) (?v_22 (* (- 2) x3)) (?v_74 (* (- 2) x8)) (?v_11 (* (- 1) x12)) (?v_72 (* (- 1) x17)) (?v_102 (* (- 2) x21)) (?v_18 (* (- 1) x7)) (?v_7 (* (- 1) x16)) (?v_36 (* (- 1) x18)) (?v_37 (* (- 1) x2)) (?v_93 (* (- 1) x4)) (?v_41 (* (- 1) x20)) (?v_91 (* (- 1) x15)) (?v_61 (* (- 1) x23)) (?v_82 (* (- 1) x3)) (?v_63 (* (- 2) x18)) (?v_26 (* (- 1) x13)) (?v_53 (* (- 1) x26)) (?v_76 (* (- 1) x14)) (?v_87 (* (- 1) x8)) (?v_75 (* (- 1) x1)) (?v_103 (* (- 1) x29)) (?v_104 (* (- 1) x9)) (?v_55 (* (- 1) x22)) (?v_86 (* (- 1) x27)) (?v_84 (* (- 2) x2)) (?v_71 (* (- 1) x0)) (?v_77 (* (- 1) x21)) (?v_78 (* (- 1) x28)) (?v_97 (* (- 2) x23)) (?v_94 (* (- 1) x19)) (?v_101 (* (- 2) x28))) (and (<= (+ ?v_60 (+ ?v_4 (+ ?v_0 (+ ?v_48 (+ ?v_5 (+ ?v_67 (+ ?v_29 (+ ?v_8 (+ ?v_1 (+ ?v_52 (+ ?v_56 (+ ?v_2 (+ ?v_31 (+ ?v_14 (+ ?v_15 (+ ?v_34 (+ ?v_32 ?v_3))))))))))))))))) 1) (<= (+ ?v_0 (+ ?v_22 (+ ?v_74 (+ ?v_38 (+ ?v_39 (+ ?v_11 (+ ?v_72 (+ ?v_102 (+ ?v_18 (+ ?v_64 (+ ?v_6 (+ ?v_7 (+ ?v_30 (+ ?v_58 (+ ?v_1 (+ ?v_9 (+ ?v_2 (+ ?v_3 (* 2 x6))))))))))))))))))) 0) (<= (+ ?v_10 (+ ?v_4 (+ ?v_5 (+ ?v_27 (+ ?v_6 (+ ?v_7 (+ ?v_12 (+ ?v_36 (+ ?v_37 (+ ?v_13 (+ ?v_1 (+ ?v_43 (+ ?v_93 (+ ?v_8 (+ ?v_9 (+ ?v_23 (+ ?v_45 (+ ?v_54 (+ ?v_42 (+ ?v_24 (+ ?v_20 (+ ?v_69 (+ ?v_85 ?v_83))))))))))))))))))))))) 0) (<= (+ (* (- 2) x15) (+ ?v_10 (+ ?v_4 (+ ?v_16 (+ ?v_11 (+ ?v_98 (+ ?v_7 (+ ?v_12 (+ ?v_13 (+ ?v_17 (+ ?v_41 (+ ?v_1 (+ ?v_33 (+ ?v_14 (+ ?v_66 (+ ?v_15 (+ ?v_19 ?v_25))))))))))))))))) 0) (<= (+ ?v_16 (+ ?v_11 (+ ?v_91 (+ ?v_46 (+ ?v_7 (+ ?v_61 (+ ?v_80 (+ ?v_17 (+ ?v_82 (+ ?v_18 (+ ?v_81 (+ ?v_13 (+ ?v_8 (+ ?v_19 (+ ?v_50 (+ ?v_20 (+ ?v_21 ?v_35))))))))))))))))) 0) (<= (+ ?v_63 (+ ?v_22 (+ ?v_10 (+ ?v_4 (+ ?v_0 (+ ?v_11 (+ ?v_26 (+ ?v_28 (+ ?v_7 (+ ?v_18 (+ ?v_40 (+ ?v_23 (+ ?v_14 (+ ?v_24 ?v_25)))))))))))))) 0) (<= (+ ?v_26 (+ ?v_27 (+ ?v_28 (+ ?v_29 (+ ?v_7 (+ ?v_30 (+ ?v_13 (+ ?v_49 (+ ?v_53 (+ ?v_31 (+ ?v_32 (+ ?v_33 (+ ?v_59 (+ ?v_14 (+ ?v_44 (+ ?v_34 ?v_35)))))))))))))))) 0) (<= (+ ?v_47 (+ ?v_76 (+ ?v_36 (+ ?v_37 (+ ?v_87 (+ ?v_38 (+ ?v_39 (+ ?v_11 (+ ?v_40 (+ ?v_41 (+ ?v_42 (+ ?v_9 (+ ?v_43 (+ ?v_44 (+ ?v_32 (+ ?v_35 (+ ?v_96 ?v_45))))))))))))))))) 0) (<= (+ ?v_75 (+ ?v_46 (+ ?v_47 (+ ?v_48 (+ ?v_5 (+ ?v_51 (+ ?v_12 (+ ?v_49 (+ ?v_6 (+ ?v_41 (+ ?v_43 (+ ?v_65 (+ ?v_2 (+ ?v_103 (+ ?v_104 (+ ?v_50 (+ ?v_14 ?v_95))))))))))))))))) 1) (<= (+ ?v_47 (+ ?v_5 (+ ?v_51 (+ (* (- 2) x5) (+ (* 2 x10) (+ ?v_55 (+ ?v_52 (+ ?v_53 (+ ?v_57 (+ ?v_13 (+ ?v_1 (+ ?v_9 (+ ?v_15 (+ ?v_44 (+ ?v_3 ?v_54))))))))))))))) 0) (<= (+ ?v_38 (+ ?v_10 (+ ?v_46 (+ ?v_48 (+ ?v_51 (+ ?v_55 (+ ?v_56 (+ ?v_86 (+ ?v_18 (+ ?v_57 (+ ?v_12 (+ ?v_58 (+ ?v_8 (+ ?v_59 (+ ?v_23 (+ ?v_15 (+ ?v_44 (+ ?v_20 ?v_62)))))))))))))))))) 0) (<= (+ ?v_26 (+ ?v_37 (+ ?v_10 (+ ?v_51 (+ ?v_60 (+ ?v_28 (+ ?v_13 (+ ?v_58 (+ ?v_8 (+ ?v_55 (+ ?v_61 (+ ?v_43 (+ ?v_14 (+ ?v_24 (+ ?v_2 (+ ?v_100 (+ ?v_62 (+ ?v_70 ?v_73)))))))))))))))))) (- 1)) (<= (+ ?v_63 (+ ?v_84 (+ ?v_71 (+ ?v_0 (+ ?v_51 (+ ?v_12 (+ ?v_13 (+ ?v_8 (+ ?v_15 (+ ?v_68 (+ ?v_64 (+ ?v_27 (+ ?v_28 (+ ?v_65 (+ ?v_52 (+ ?v_57 (+ ?v_23 (+ ?v_79 ?v_66)))))))))))))))))) 0) (<= (+ ?v_38 (+ ?v_10 (+ ?v_88 (+ ?v_5 (+ ?v_12 (+ ?v_49 (+ ?v_67 (+ ?v_65 (+ ?v_52 (+ ?v_23 (+ ?v_43 (+ ?v_15 (+ ?v_31 (+ ?v_9 (+ ?v_68 (+ ?v_20 (+ ?v_69 ?v_70))))))))))))))))) (- 1)) (<= (+ ?v_71 (+ ?v_47 (+ ?v_72 (+ ?v_51 (+ ?v_39 (+ ?v_6 (+ ?v_77 (+ ?v_78 (+ ?v_34 (+ ?v_57 (+ ?v_13 (+ ?v_59 (+ ?v_9 (+ ?v_32 (+ ?v_54 (+ ?v_2 (+ ?v_62 ?v_73))))))))))))))))) 0) (<= (+ ?v_74 (+ ?v_71 (+ ?v_75 (+ ?v_76 (+ ?v_37 (+ ?v_46 (+ ?v_41 (+ ?v_77 (+ ?v_52 (+ ?v_78 (+ ?v_34 (+ ?v_57 (+ ?v_42 (+ ?v_1 (+ ?v_79 (+ ?v_66 (+ ?v_44 (+ ?v_32 (+ ?v_3 ?v_50))))))))))))))))))) 0) (<= (+ ?v_97 (+ ?v_10 (+ ?v_47 (+ ?v_6 (+ ?v_80 (+ ?v_81 (+ ?v_60 (+ ?v_94 (+ ?v_48 (+ ?v_49 (+ ?v_56 (+ ?v_82 (+ ?v_57 (+ ?v_58 (+ ?v_23 (+ ?v_44 (+ ?v_33 (+ ?v_21 (+ ?v_83 ?v_3))))))))))))))))))) 1) (<= (+ ?v_84 (+ ?v_71 (+ ?v_75 (+ (* 2 x11) (+ ?v_48 (+ ?v_51 (+ ?v_57 (+ ?v_12 (+ ?v_81 (+ (* 2 x19) (+ ?v_58 (+ ?v_8 (+ ?v_42 (+ ?v_1 (+ ?v_44 (+ ?v_68 (+ ?v_85 ?v_90))))))))))))))))) 0) (<= (+ ?v_61 (+ ?v_86 (+ ?v_60 (+ ?v_16 (+ (* (- 2) x4) (+ ?v_87 (+ ?v_64 (+ ?v_27 (+ ?v_6 (+ ?v_67 (+ ?v_52 (+ ?v_57 (+ ?v_12 (+ ?v_30 (+ ?v_17 (+ ?v_8 (+ ?v_54 (+ ?v_42 (+ ?v_20 (+ ?v_69 (+ ?v_70 ?v_85))))))))))))))))))))) 1) (<= (+ ?v_10 (+ ?v_60 (+ ?v_4 (+ ?v_82 (+ ?v_88 (+ ?v_51 (+ ?v_80 (+ ?v_81 (+ ?v_13 (+ ?v_27 (+ ?v_57 (+ ?v_59 (+ ?v_9 (+ ?v_23 (+ ?v_79 (+ ?v_44 (+ ?v_45 ?v_92))))))))))))))))) (- 1)) (<= (+ ?v_71 (+ ?v_10 (+ (* (- 2) x29) (+ ?v_4 (+ ?v_16 (+ ?v_61 (+ ?v_53 (+ ?v_82 (+ ?v_48 (+ ?v_57 (+ ?v_81 (+ ?v_13 (+ ?v_17 (+ ?v_42 (+ ?v_32 (+ ?v_89 (+ ?v_83 ?v_90))))))))))))))))) 0) (<= (+ ?v_71 (+ ?v_75 (+ ?v_0 (+ ?v_91 (+ ?v_72 (+ ?v_86 (+ ?v_88 (+ ?v_27 (+ (* (- 3) x29) (+ ?v_41 (+ ?v_52 (+ ?v_56 (+ ?v_82 (+ ?v_57 (+ ?v_40 (+ ?v_23 (+ ?v_45 (+ ?v_68 (+ ?v_33 ?v_21))))))))))))))))))) 1) (<= (+ ?v_75 (+ ?v_88 (+ ?v_5 (+ ?v_81 (+ ?v_60 (+ (* (- 2) x19) (+ ?v_49 (+ ?v_77 (+ ?v_86 (+ ?v_64 (+ ?v_27 (+ ?v_52 (+ ?v_58 (+ ?v_23 (+ ?v_14 (+ ?v_69 (+ ?v_89 ?v_92))))))))))))))))) 0) (<= (+ ?v_75 (+ ?v_47 (+ ?v_11 (+ ?v_5 (+ ?v_72 (+ ?v_61 (+ ?v_88 (+ ?v_81 (+ ?v_8 (+ ?v_101 (+ ?v_42 (+ ?v_59 (+ ?v_2 (+ ?v_79 (+ ?v_44 (+ ?v_45 (+ ?v_21 ?v_3))))))))))))))))) 0) (<= (+ ?v_37 (+ ?v_88 (+ ?v_51 (+ ?v_81 (+ (* (- 3) x20) (+ ?v_77 (+ ?v_52 (+ ?v_53 (+ ?v_93 (+ ?v_42 (+ ?v_79 (+ ?v_66 (+ ?v_15 (+ ?v_45 (+ ?v_20 (+ ?v_21 (+ ?v_85 ?v_35))))))))))))))))) 0) (<= (+ ?v_47 (+ ?v_26 (+ ?v_12 (+ ?v_36 (+ ?v_37 (+ ?v_10 (+ ?v_60 (+ ?v_4 (+ ?v_67 (+ ?v_94 (+ ?v_27 (+ ?v_77 (+ (* 2 x20) (+ ?v_42 (+ ?v_59 (+ ?v_21 (+ ?v_32 ?v_68))))))))))))))))) 0) (<= (+ ?v_87 (+ ?v_10 (+ ?v_47 (+ (* 2 x0) (+ (* (- 2) x26) (+ ?v_48 (+ ?v_88 (+ ?v_5 (+ ?v_64 (+ ?v_17 (+ ?v_99 (+ ?v_58 (+ ?v_33 (+ ?v_42 (+ ?v_59 (+ ?v_79 (+ ?v_14 (+ ?v_44 (+ ?v_45 (+ ?v_32 (+ ?v_95 ?v_96))))))))))))))))))))) 0) (<= (+ ?v_97 (+ ?v_38 (+ ?v_11 (+ ?v_72 (+ ?v_98 (+ ?v_99 (+ ?v_81 (+ ?v_13 (+ ?v_93 (+ ?v_31 (+ ?v_68 (+ ?v_64 (+ ?v_33 (+ ?v_78 (+ ?v_42 (+ ?v_9 (+ ?v_2 (+ ?v_79 (+ ?v_66 (+ ?v_95 ?v_100)))))))))))))))))))) 0) (<= (+ ?v_36 (+ ?v_38 (+ ?v_10 (+ ?v_16 (+ ?v_48 (+ ?v_28 (+ ?v_51 (+ ?v_17 (+ ?v_41 (+ ?v_61 (+ ?v_82 (+ ?v_93 (+ ?v_18 (+ ?v_8 (+ ?v_78 (+ ?v_42 (+ ?v_79 ?v_34))))))))))))))))) (- 1)) (<= (+ ?v_71 (+ ?v_26 (+ ?v_10 (+ ?v_67 (+ ?v_80 (+ ?v_81 (+ ?v_40 (+ ?v_41 (+ ?v_8 (+ ?v_65 (+ ?v_52 (+ ?v_18 (+ ?v_50 (+ ?v_14 (+ ?v_15 (+ ?v_45 (+ ?v_21 (+ ?v_3 ?v_95)))))))))))))))))) 1) (<= (+ ?v_47 (+ (* (- 2) x17) (+ ?v_26 (+ ?v_61 (+ ?v_87 (+ ?v_48 (+ ?v_49 (+ ?v_101 (+ ?v_58 (+ ?v_59 (+ ?v_23 (+ ?v_50 (+ ?v_96 ?v_105))))))))))))) (- 1)) (<= (+ ?v_38 (+ ?v_39 (+ ?v_48 (+ ?v_102 (+ ?v_103 (+ ?v_31 (+ ?v_104 (+ ?v_64 (+ ?v_40 (+ ?v_54 (+ ?v_42 (+ ?v_59 (+ ?v_9 (+ ?v_23 (+ ?v_14 (+ ?v_89 ?v_105)))))))))))))))) 1) (<= (+ ?v_0 (+ ?v_26 (+ ?v_36 (+ ?v_37 (+ ?v_10 (+ ?v_46 (+ ?v_5 (+ ?v_13 (+ ?v_59 (+ ?v_9 (+ ?v_23 (+ ?v_43 (+ ?v_66 (+ ?v_44 (+ ?v_68 (+ ?v_3 (+ ?v_54 (+ ?v_33 (+ ?v_19 (+ ?v_62 ?v_85)))))))))))))))))))) 0) (<= (+ ?v_75 (+ ?v_0 (+ ?v_72 (+ ?v_82 (+ ?v_38 (+ ?v_46 (+ ?v_5 (+ ?v_6 (+ ?v_81 (+ ?v_49 (+ ?v_1 (+ ?v_40 (+ ?v_23 (+ ?v_43 (+ ?v_44 (+ ?v_68 (+ ?v_50 (+ ?v_69 ?v_21)))))))))))))))))) (- 1)) (<= (+ (* (- 2) x9) (+ ?v_4 (+ ?v_0 (+ ?v_76 (+ ?v_91 (+ ?v_86 (+ ?v_12 (+ ?v_49 (+ ?v_6 (+ ?v_30 (+ ?v_40 (+ ?v_93 (+ ?v_8 (+ ?v_1 (+ ?v_9 (+ ?v_20 ?v_34)))))))))))))))) (- 1)))))))
(check-sat)
(exit)
